; benchmark generated from python API
(set-info :status unknown)
(declare-fun x_months () Int)
(declare-fun x_beta () Int)
(declare-fun y_months () Int)
(declare-fun y_beta () Int)
(assert
 (<= (- 1202) x_months))
(assert
 (>= 1209 x_months))
(assert
 (>= x_beta 0))
(assert
 (let ((?x2334 (+ x_months 24003)))
 (let ((?x2253 (- ?x2334 (* (div (- ?x2334 1) 12) 12))))
 (let ((?x3731 (ite (or (= ?x2253 4) (= ?x2253 6) (= ?x2253 9) (= ?x2253 11)) 30 31)))
 (let (($x1454 (and (= (mod (div (- ?x2334 1) 12) 4) 0) (and (distinct (mod (div (- ?x2334 1) 12) 100) 0) true))))
 (let ((?x1749 (ite (or $x1454 (= (mod (div (- ?x2334 1) 12) 400) 0)) 29 28)))
 (< x_beta (ite (= ?x2253 2) ?x1749 ?x3731))))))))
(assert
 (<= (- 1202) y_months))
(assert
 (>= 1209 y_months))
(assert
 (>= y_beta 0))
(assert
 (let ((?x2426 (+ y_months 24003)))
 (let ((?x2071 (- ?x2426 (* (div (- ?x2426 1) 12) 12))))
 (let ((?x2566 (ite (or (= ?x2071 4) (= ?x2071 6) (= ?x2071 9) (= ?x2071 11)) 30 31)))
 (let (($x2238 (and (= (mod (div (- ?x2426 1) 12) 4) 0) (and (distinct (mod (div (- ?x2426 1) 12) 100) 0) true))))
 (let ((?x2719 (ite (or $x2238 (= (mod (div (- ?x2426 1) 12) 400) 0)) 29 28)))
 (< y_beta (ite (= ?x2071 2) ?x2719 ?x2566))))))))
(assert
 (and (= x_months (- (+ (* 2020 12) 2) 24003)) (= 28 x_beta)))
(assert
 (let ((?x2032 (+ x_beta 1)))
 (let ((?x2560 (+ (+ x_months 12) 24003)))
 (let ((?x3238 (- ?x2560 (* (div (- ?x2560 1) 12) 12))))
 (let ((?x2822 (ite (or (= ?x3238 4) (= ?x3238 6) (= ?x3238 9) (= ?x3238 11)) 30 31)))
 (let (($x4178 (and (= (mod (div (- ?x2560 1) 12) 4) 0) (and (distinct (mod (div (- ?x2560 1) 12) 100) 0) true))))
 (let (($x1199 (or $x4178 (= (mod (div (- ?x2560 1) 12) 400) 0))))
 (let ((?x1569 (ite (= ?x3238 2) (ite $x1199 29 28) ?x2822)))
 (let ((?x3514 (ite (> 1 ?x2032) 1 (ite (> ?x2032 ?x1569) ?x1569 ?x2032))))
 (let ((?x908 (ite (> 1 ?x3514) 1 (ite (> ?x3514 ?x1569) ?x1569 ?x3514))))
 (let ((?x4464 (ite (= 2 ?x3238) (ite $x1199 31 31) (ite (= 1 ?x3238) (ite $x1199 0 0) 0))))
 (let ((?x4018 (ite (= 4 ?x3238) (ite $x1199 91 90) (ite (= 3 ?x3238) (ite $x1199 60 59) ?x4464))))
 (let ((?x1268 (ite (= 6 ?x3238) (ite $x1199 152 151) (ite (= 5 ?x3238) (ite $x1199 121 120) ?x4018))))
 (let ((?x4128 (ite (= 8 ?x3238) (ite $x1199 213 212) (ite (= 7 ?x3238) (ite $x1199 182 181) ?x1268))))
 (let ((?x2839 (ite (= 10 ?x3238) (ite $x1199 274 273) (ite (= 9 ?x3238) (ite $x1199 244 243) ?x4128))))
 (let ((?x298 (ite (= 12 ?x3238) (ite $x1199 335 334) (ite (= 11 ?x3238) (ite $x1199 305 304) ?x2839))))
 (let ((?x231 (+ (* 365 (- (div (- ?x2560 1) 12) 1)) (div (- (div (- ?x2560 1) 12) 1) 4))))
 (let ((?x1982 (+ (- ?x231 (div (- (div (- ?x2560 1) 12) 1) 100)) (div (- (div (- ?x2560 1) 12) 1) 400))))
 (let ((?x1344 (+ (+ (- (+ (+ ?x1982 ?x298) (- ?x908 1)) 730179) 0) 730179)))
 (let ((?x2411 (mod ?x1344 146097)))
 (let ((?x2078 (div ?x2411 36524)))
 (let ((?x4048 (ite (<= 4 ?x2078) 3 ?x2078)))
 (let ((?x1409 (- ?x2411 (* ?x4048 36524))))
 (let ((?x1691 (mod ?x1409 1461)))
 (let ((?x1289 (div ?x1691 365)))
 (let ((?x3254 (ite (<= 4 ?x1289) 3 ?x1289)))
 (let ((?x3802 (+ (+ (* (div ?x1344 146097) 400) (* ?x4048 100)) (* (div ?x1409 1461) 4))))
 (let ((?x4565 (+ (+ ?x3802 ?x3254) 1)))
 (let (($x2692 (or (and (= (mod ?x4565 4) 0) (and (distinct (mod ?x4565 100) 0) true)) (= (mod ?x4565 400) 0))))
 (let ((?x3250 (- ?x1691 (* ?x3254 365))))
 (let ((?x795 (ite $x2692 31 31)))
 (let (($x4133 (>= ?x3250 ?x795)))
 (let ((?x3487 (ite $x4133 (+ (- ?x3250 ?x795) 1) (+ (- ?x3250 (ite $x2692 0 0)) 1))))
 (let ((?x2811 (ite $x2692 60 59)))
 (let (($x4794 (>= ?x3250 ?x2811)))
 (let ((?x2497 (ite $x2692 91 90)))
 (let (($x3264 (>= ?x3250 ?x2497)))
 (let ((?x3127 (ite $x3264 (+ (- ?x3250 ?x2497) 1) (ite $x4794 (+ (- ?x3250 ?x2811) 1) ?x3487))))
 (let ((?x1851 (ite $x2692 121 120)))
 (let (($x515 (>= ?x3250 ?x1851)))
 (let ((?x599 (ite $x2692 152 151)))
 (let (($x3475 (>= ?x3250 ?x599)))
 (let ((?x2607 (ite $x3475 (+ (- ?x3250 ?x599) 1) (ite $x515 (+ (- ?x3250 ?x1851) 1) ?x3127))))
 (let ((?x3036 (ite $x2692 182 181)))
 (let (($x4568 (>= ?x3250 ?x3036)))
 (let ((?x3912 (ite $x2692 213 212)))
 (let (($x3214 (>= ?x3250 ?x3912)))
 (let ((?x4748 (ite $x3214 (+ (- ?x3250 ?x3912) 1) (ite $x4568 (+ (- ?x3250 ?x3036) 1) ?x2607))))
 (let ((?x3392 (ite $x2692 244 243)))
 (let (($x2691 (>= ?x3250 ?x3392)))
 (let ((?x1960 (ite $x2692 274 273)))
 (let (($x433 (>= ?x3250 ?x1960)))
 (let ((?x4164 (ite $x433 (+ (- ?x3250 ?x1960) 1) (ite $x2691 (+ (- ?x3250 ?x3392) 1) ?x4748))))
 (let ((?x2860 (ite $x2692 305 304)))
 (let (($x3329 (>= ?x3250 ?x2860)))
 (let ((?x2864 (ite $x2692 335 334)))
 (let (($x4265 (>= ?x3250 ?x2864)))
 (let ((?x459 (ite $x4265 (+ (- ?x3250 ?x2864) 1) (ite $x3329 (+ (- ?x3250 ?x2860) 1) ?x4164))))
 (let (($x1367 (= 0 0)))
 (let ((?x3076 (ite $x515 5 (ite $x3264 4 (ite $x4794 3 (ite $x4133 2 1))))))
 (let ((?x2404 (ite $x2691 9 (ite $x3214 8 (ite $x4568 7 (ite $x3475 6 ?x3076))))))
 (let ((?x2353 (+ (* (ite $x1367 (div (- ?x2560 1) 12) ?x4565) 12) (ite $x1367 ?x3238 (ite $x4265 12 (ite $x3329 11 (ite $x433 10 ?x2404)))))))
 (and (= y_months (- ?x2353 24003)) (= y_beta (- (ite $x1367 ?x908 ?x459) 1)))))))))))))))))))))))))))))))))))))))))))))))))))))))))))))))))
(assert
 (let (($x203 (and (= y_months (- (+ (* 2021 12) 2) 24003)) (= 27 y_beta))))
(not $x203)))
(check-sat)
